p cnf 125 250
1 -125 -103 0
1 -125 -76 0
1 -124 -52 0
1 -124 -7 0
1 -123 -97 0
1 -123 35 0
1 -122 -92 0
1 -122 10 0
1 -121 6 0
1 -121 102 0
1 -120 -13 0
1 -120 90 0
1 -119 -118 0
1 -119 71 0
1 -118 -20 0
1 -117 -102 0
1 -117 42 0
1 -116 -75 0
1 -116 43 0
1 -115 -31 0
1 -115 51 0
1 -114 58 0
1 -114 84 0
1 -113 -54 0
1 -113 45 0
1 -112 -76 0
1 -112 8 0
1 -111 -102 0
1 -111 78 0
1 -110 -100 0
1 -110 14 0
1 -109 -42 0
1 -109 120 0
1 -108 -1 0
1 -108 96 0
1 -107 -68 0
1 -107 -41 0
1 -106 -26 0
1 -106 114 0
1 -105 -90 0
1 -105 76 0
1 -104 -98 0
1 -104 36 0
1 -103 -84 0
1 -101 -13 0
1 -101 9 0
1 -100 -78 0
1 -99 47 0
1 -99 48 0
1 -98 19 0
1 -97 56 0
1 -96 -47 0
1 -96 69 0
1 -95 -70 0
1 -95 6 0
1 -94 61 0
1 -94 102 0
1 -93 -16 0
1 -93 -6 0
1 -92 -33 0
1 -91 -32 0
1 -91 68 0
1 -90 -27 0
1 -89 -81 0
1 -89 -35 0
1 -88 -16 0
1 -88 99 0
1 -87 -62 0
1 -87 -23 0
1 -86 30 0
1 -86 96 0
1 -85 -50 0
1 -85 13 0
1 -84 120 0
1 -83 -45 0
1 -83 59 0
1 -82 -36 0
1 -82 52 0
1 -81 -43 0
1 -80 53 0
1 -80 105 0
1 -79 -60 0
1 -79 -19 0
1 -78 57 0
1 -77 5 0
1 -77 67 0
1 -75 -4 0
1 -74 -11 0
1 -74 15 0
1 -73 39 0
1 -73 97 0
1 -72 16 0
1 -72 94 0
1 -71 9 0
1 -71 17 0
1 -70 -44 0
1 -69 1 0
1 -69 56 0
1 -68 80 0
1 -67 52 0
1 -67 78 0
1 -66 50 0
1 -66 113 0
1 -65 -21 0
1 -65 30 0
1 -64 -35 0
1 -64 -2 0
1 -63 -49 0
1 -63 5 0
1 -62 22 0
1 -61 19 0
1 -61 105 0
1 -60 -29 0
1 -59 -38 0
1 -59 -3 0
1 -58 -53 0
1 -58 104 0
1 -57 82 0
1 -57 110 0
1 -56 -52 0
1 -56 87 0
1 -55 -21 0
1 -55 103 0
1 -54 61 0
1 -53 -37 0
1 -51 64 0
1 -51 75 0
1 -50 14 0
1 -49 -12 0
1 -48 110 0
1 -48 111 0
1 -47 18 0
1 -46 -14 0
1 -46 103 0
1 -45 93 0
1 -44 47 0
1 -43 -4 0
1 -42 125 0
1 -41 -24 0
1 -40 25 0
1 -40 117 0
1 -39 62 0
1 -39 76 0
1 -38 114 0
1 -37 62 0
1 -36 24 0
1 -34 57 0
1 -34 121 0
1 -33 88 0
1 -32 -9 0
1 -31 85 0
1 -30 106 0
1 -30 118 0
1 -29 69 0
1 -28 -10 0
1 -28 31 0
1 -27 -25 0
1 -26 66 0
1 -25 89 0
1 -24 115 0
1 -23 3 0
1 -22 59 0
1 -22 91 0
1 -20 25 0
1 -19 -17 0
1 -18 41 0
1 -18 46 0
1 -17 -2 0
1 -15 2 0
1 -15 41 0
1 -14 83 0
1 -12 100 0
1 -11 4 0
1 -10 12 0
1 -9 86 0
1 -8 15 0
1 -8 104 0
1 -7 23 0
1 -6 87 0
1 -5 37 0
1 -5 112 0
1 -3 66 0
1 -1 40 0
1 1 54 0
1 2 39 0
1 3 74 0
1 4 49 0
1 7 26 0
1 7 124 0
1 8 11 0
1 10 119 0
1 11 21 0
1 12 49 0
1 13 116 0
1 16 119 0
1 17 40 0
1 18 107 0
1 20 58 0
1 20 98 0
1 21 92 0
1 22 54 0
1 23 101 0
1 24 91 0
1 26 88 0
1 27 32 0
1 27 117 0
1 28 106 0
1 28 116 0
1 29 53 0
1 29 95 0
1 31 113 0
1 32 90 0
1 33 71 0
1 33 108 0
1 34 101 0
1 34 109 0
1 35 94 0
1 36 51 0
1 37 55 0
1 38 55 0
1 38 70 0
1 42 48 0
1 43 81 0
1 44 79 0
1 44 82 0
1 45 98 0
1 46 68 0
1 50 123 0
1 60 65 0
1 60 77 0
1 63 77 0
1 63 122 0
1 64 115 0
1 65 92 0
1 67 99 0
1 70 83 0
1 72 89 0
1 72 100 0
1 73 112 0
1 73 122 0
1 74 93 0
1 75 95 0
1 79 97 0
1 80 121 0
1 81 125 0
1 84 124 0
1 85 108 0
1 86 118 0
1 107 123 0
1 109 111 0
